problems/csplib-prob056/sonet-models/noch/O2/lingeling/model_4_1-s2ring13-solution000001.eprime-solution
language ESSENCE' 1.0

letting network_ExplicitWithFlagsR4_Flags be [1, 3, 1, 1, 0, 0; int(1..6)]
letting network_ExplicitWithFlagsR4_Values_ExplicitVarSizeWithFlags_Flags be
        [[true, true, false, false, false; int(1..5)], [true, true, true, false, false; int(1..5)],
         [true, true, true, true, true; int(1..5)], [true, true, true, true, true; int(1..5)],
         [false, false, false, false, false; int(1..5)], [false, false, false, false, false; int(1..5)]; int(1..6)]
letting network_ExplicitWithFlagsR4_Values_ExplicitVarSizeWithFlags_Values be
        [[5, 7, 1, 1, 1; int(1..5)], [1, 4, 8, 1, 1; int(1..5)], [1, 2, 3, 5, 10; int(1..5)],
         [2, 4, 6, 7, 9; int(1..5)], [1, 1, 1, 1, 1; int(1..5)], [1, 1, 1, 1, 1; int(1..5)]; int(1..6)]
