problems/csplib-prob056/sonet-models/noch/O2/lingeling/model_4_1-s2ring13-solution000001.solution
language Essence 1.3

letting network be mset({1, 2, 3, 5, 10}, {1, 4, 8}, {1, 4, 8}, {1, 4, 8}, {2, 4, 6, 7, 9}, {5, 7})
$ Here is a simple "visualisation" for the value above.
$  1  2  3  5 10
$  1  4  8
$  1  4  8
$  1  4  8
$  2  4  6  7  9
$  5  7

